Version identifier: 12.10.0.0 | 2019-11-26 | 843d4de
CPXPARAM_WorkMem                                 28672
Tried aggregator 2 times.
Aggregator did 60 substitutions.
Reduced MIP has 203 rows, 240 columns, and 912 nonzeros.
Reduced MIP has 240 binaries, 0 generals, 0 SOSs, and 0 indicators.
Presolve time = 0,00 sec. (0,87 ticks)
Found incumbent of value 2820,000000 after 0,01 sec. (1,57 ticks)
Probing time = 0,00 sec. (0,32 ticks)
Tried aggregator 1 time.
Detecting symmetries...
MIP Presolve eliminated 48 rows and 0 columns.
MIP Presolve added 96 rows and 0 columns.
Reduced MIP has 251 rows, 240 columns, and 960 nonzeros.
Reduced MIP has 240 binaries, 0 generals, 0 SOSs, and 0 indicators.
Presolve time = 0,00 sec. (1,05 ticks)
Probing time = 0,00 sec. (0,31 ticks)
Clique table members: 632.
MIP emphasis: balance optimality and feasibility.
MIP search method: dynamic search.
Parallel mode: deterministic, using up to 16 threads.
Root relaxation solution time = 0,00 sec. (0,84 ticks)

        Nodes                                         Cuts/
   Node  Left     Objective  IInf  Best Integer    Best Bound    ItCnt     Gap

*     0+    0                         2820,0000        0,0000           100,00%
*     0+    0                         1997,0000        0,0000           100,00%
*     0+    0                         1839,0000        0,0000           100,00%
*     0+    0                         1816,0000        0,0000           100,00%
      0     0      940,0000   164     1816,0000      940,0000       89   48,24%
      0     0      940,0000   164     1816,0000     Cuts: 162      179   48,24%
      0     0      951,6434   164     1816,0000     Cuts: 162      293   47,60%
      0     0      958,1406   164     1816,0000     Cuts: 134      316   47,24%
      0     0      959,3162   164     1816,0000      Cuts: 13      333   47,17%
      0     0      960,6513   164     1816,0000       Cuts: 4      345   47,10%
Detecting symmetries...
      0     0      960,9952   164     1816,0000      Cuts: 12      356   47,08%
      0     0      961,3197   164     1816,0000      Cuts: 41      359   47,06%
*     0+    0                         1687,0000      961,3197            43,02%
Detecting symmetries...
      0     2      961,3197   239     1687,0000     1154,5071      359   31,56%
Elapsed time = 0,16 sec. (65,32 ticks, tree = 0,02 MB, solutions = 5)
   2667  1473     1518,1881   173     1687,0000     1355,4762   104634   19,65%
   5724  2617        cutoff           1687,0000     1497,5007   225176   11,23%
*  5796  2643      integral     0     1683,0000     1499,5747   230255   10,90%
*  5841+ 2676                         1661,0000     1499,5747             9,72%

Performing restart 1

Repeating presolve.
Tried aggregator 1 time.
Reduced MIP has 251 rows, 240 columns, and 960 nonzeros.
Reduced MIP has 240 binaries, 0 generals, 0 SOSs, and 0 indicators.
Presolve time = 0,00 sec. (0,56 ticks)
Tried aggregator 1 time.
Reduced MIP has 251 rows, 240 columns, and 960 nonzeros.
Reduced MIP has 240 binaries, 0 generals, 0 SOSs, and 0 indicators.
Presolve time = 0,00 sec. (0,72 ticks)
Represolve time = 0,01 sec. (6,95 ticks)
   6347     0      965,3503   239     1661,0000   LiftProj: 4   268882    7,93%
   6347     0      980,5626   239     1661,0000      Fract: 3   268908    7,93%
   6347     0      989,4509   239     1661,0000       Cuts: 7   268935    7,93%
*  6347+    0                         1648,0000     1529,2752             7,20%
   6347     0     1001,3599   239     1648,0000       Cuts: 7   268994    7,20%
   6347     0     1007,9575   239     1648,0000       Cuts: 5   269015    7,20%
   6347     2     1007,9575   239     1648,0000     1529,2752   269015    7,20%
   7467   527     1334,2364   196     1648,0000     1529,2752   295988    7,20%
   9597  1637        cutoff           1648,0000     1529,2752   357817    7,20%
*  9796+ 1805                         1640,0000     1529,2752             6,75%
  11697  2460     1631,2341   167     1640,0000     1529,2752   425153    6,75%
* 13979  2921      integral     0     1639,0000     1529,2752   500147    6,69%
  14178  2916     1628,7770   149     1639,0000     1529,2752   504260    6,69%

Performing restart 2

Repeating presolve.
Tried aggregator 1 time.
Reduced MIP has 251 rows, 240 columns, and 960 nonzeros.
Reduced MIP has 240 binaries, 0 generals, 0 SOSs, and 0 indicators.
Presolve time = 0,00 sec. (0,56 ticks)
Tried aggregator 1 time.
Reduced MIP has 251 rows, 240 columns, and 960 nonzeros.
Reduced MIP has 240 binaries, 0 generals, 0 SOSs, and 0 indicators.
Presolve time = 0,00 sec. (0,72 ticks)
Represolve time = 0,02 sec. (15,48 ticks)
  14218     0     1021,7120   239     1639,0000       Cuts: 7   515928    6,69%
  14218     0     1028,6016   239     1639,0000       Cuts: 8   515975    6,69%
  14218     0     1032,2906   239     1639,0000      Cuts: 10   516032    6,69%
  14218     0     1036,2409   239     1639,0000       Cuts: 7   516098    6,69%
  14218     0     1040,1245   239     1639,0000       Cuts: 9   516169    6,69%
  14218     0     1044,4088   239     1639,0000       Cuts: 6   516240    6,69%
  14218     0     1044,5618   239     1639,0000       Cuts: 2   516252    6,69%
  14218     2     1044,5618   237     1639,0000     1529,2752   516252    6,69%
  16074   236        cutoff           1639,0000     1529,2752   593339    6,69%

Clique cuts applied:  83
Cover cuts applied:  371
Flow cuts applied:  1
Mixed integer rounding cuts applied:  14
Zero-half cuts applied:  6
Lift and project cuts applied:  5
Gomory fractional cuts applied:  39

Root node processing (before b&c):
  Real time             =    0,15 sec. (65,02 ticks)
Parallel b&c, 16 threads:
  Real time             =    3,47 sec. (2557,57 ticks)
  Sync time (average)   =    0,98 sec.
  Wait time (average)   =    0,01 sec.
                          ------------
Total (root+branch&cut) =    3,63 sec. (2622,59 ticks)
